c 136_4_checker_5cl.cnf
c
c field = 136
c formula set type = 4_checker_5cl
c
p cnf 5 6
272 
274 
276 
278 
-280 
273 
275 
277 
279 
-281 
302 
334 
366 
398 
-430 
303 
335 
367 
399 
-431 
158 
186 
214 
242 
-130 
159 
187 
215 
243 
-131 
